c musae-wiki:chameleon: The data was collected from the English Wikipedia (December 2018). https://snap.stanford.edu/data/wikipedia-article-networks.html
p edge 482 570
e 1 380
e 1 152
e 2 53
e 2 331
e 3 411
e 3 71
e 3 294
e 3 78
e 3 156
e 4 218
e 4 143
e 5 259
e 6 385
e 6 315
e 7 286
e 8 289
e 9 64
e 9 231
e 10 407
e 10 286
e 10 257
e 11 286
e 12 286
e 12 143
e 13 477
e 14 29
e 14 176
e 14 162
e 15 347
e 16 191
e 17 115
e 18 197
e 18 347
e 19 330
e 19 286
e 20 286
e 21 406
e 22 443
e 22 286
e 23 72
e 24 144
e 25 144
e 26 286
e 27 385
e 27 117
e 27 441
e 28 144
e 29 204
e 29 290
e 29 225
e 30 274
e 31 263
e 32 247
e 32 344
e 33 248
e 34 329
e 34 351
e 34 179
e 35 144
e 35 347
e 36 186
e 37 347
e 38 191
e 39 330
e 40 107
e 40 192
e 40 210
e 40 94
e 40 149
e 41 347
e 42 369
e 42 180
e 43 218
e 44 147
e 45 286
e 46 458
e 47 147
e 48 443
e 49 176
e 50 144
e 50 210
e 50 356
e 50 139
e 51 286
e 51 273
e 52 347
e 53 414
e 53 158
e 53 172
e 53 293
e 54 443
e 55 330
e 56 481
e 56 347
e 57 411
e 57 78
e 57 218
e 58 72
e 58 327
e 58 136
e 59 110
e 60 331
e 61 286
e 62 330
e 62 203
e 62 243
e 62 339
e 62 387
e 62 148
e 62 318
e 63 165
e 63 180
e 63 448
e 64 472
e 64 200
e 64 173
e 64 474
e 65 330
e 66 160
e 67 397
e 68 330
e 68 235
e 69 205
e 70 330
e 71 133
e 71 78
e 71 474
e 71 164
e 71 346
e 71 314
e 72 233
e 73 330
e 74 443
e 74 100
e 74 356
e 75 323
e 76 482
e 77 433
e 78 411
e 78 253
e 78 418
e 78 298
e 78 246
e 79 143
e 80 156
e 81 286
e 82 359
e 83 277
e 83 226
e 83 456
e 84 132
e 85 423
e 85 416
e 85 296
e 85 468
e 85 309
e 86 338
e 86 443
e 87 311
e 88 286
e 89 378
e 90 341
e 90 347
e 91 327
e 92 146
e 92 323
e 92 347
e 93 286
e 95 349
e 96 305
e 96 465
e 97 355
e 98 398
e 99 443
e 99 445
e 100 473
e 100 313
e 101 361
e 102 110
e 102 247
e 102 239
e 103 341
e 103 389
e 104 115
e 105 443
e 106 401
e 106 433
e 107 443
e 108 443
e 108 356
e 108 149
e 108 286
e 109 305
e 109 433
e 110 286
e 110 224
e 110 443
e 110 292
e 110 430
e 111 235
e 112 286
e 113 286
e 114 235
e 115 165
e 115 467
e 115 258
e 115 130
e 115 327
e 115 427
e 115 232
e 115 377
e 115 247
e 115 460
e 116 144
e 117 171
e 117 272
e 118 352
e 119 218
e 120 445
e 121 235
e 122 347
e 123 347
e 124 235
e 125 380
e 125 447
e 126 330
e 126 443
e 127 224
e 127 477
e 128 186
e 129 323
e 131 156
e 131 193
e 131 406
e 132 182
e 133 477
e 134 144
e 135 143
e 136 343
e 136 368
e 136 166
e 136 242
e 137 160
e 137 286
e 137 433
e 138 218
e 139 471
e 139 289
e 139 140
e 141 402
e 141 286
e 142 330
e 142 379
e 143 295
e 143 277
e 143 250
e 143 275
e 143 426
e 143 201
e 143 456
e 144 324
e 144 422
e 144 287
e 144 474
e 144 204
e 144 393
e 144 311
e 144 148
e 144 216
e 144 357
e 144 412
e 144 358
e 144 388
e 144 461
e 144 161
e 144 199
e 144 429
e 144 268
e 144 164
e 144 426
e 144 270
e 144 160
e 144 439
e 144 378
e 144 353
e 145 445
e 146 338
e 147 166
e 147 158
e 147 407
e 147 206
e 148 235
e 149 263
e 149 434
e 150 256
e 151 330
e 151 359
e 153 286
e 154 162
e 155 401
e 157 383
e 159 443
e 160 444
e 160 330
e 160 301
e 160 479
e 160 250
e 160 252
e 160 324
e 160 284
e 161 294
e 162 332
e 162 366
e 162 408
e 163 330
e 166 355
e 166 228
e 167 290
e 168 240
e 169 443
e 170 330
e 170 266
e 171 189
e 173 311
e 174 330
e 175 330
e 176 341
e 177 409
e 178 347
e 179 372
e 179 326
e 179 215
e 180 347
e 180 316
e 180 330
e 181 383
e 182 447
e 182 196
e 182 449
e 183 359
e 184 193
e 185 391
e 186 299
e 187 383
e 188 347
e 188 309
e 190 330
e 191 317
e 191 310
e 191 463
e 191 464
e 192 330
e 193 242
e 193 330
e 193 212
e 194 331
e 194 362
e 194 285
e 195 433
e 196 347
e 198 406
e 199 364
e 200 235
e 200 228
e 201 330
e 201 362
e 202 330
e 203 401
e 204 230
e 205 242
e 207 337
e 208 235
e 209 443
e 210 300
e 211 379
e 212 218
e 213 362
e 214 330
e 217 286
e 218 442
e 218 260
e 218 298
e 218 396
e 218 243
e 218 338
e 218 399
e 219 286
e 220 410
e 220 274
e 221 330
e 222 443
e 223 445
e 226 248
e 227 248
e 229 240
e 229 458
e 231 298
e 231 472
e 232 315
e 234 294
e 235 415
e 235 236
e 235 328
e 235 271
e 235 457
e 235 251
e 237 443
e 238 351
e 238 249
e 239 242
e 239 299
e 239 417
e 240 443
e 241 330
e 242 288
e 244 329
e 245 445
e 247 330
e 247 342
e 248 451
e 248 343
e 251 259
e 253 395
e 254 332
e 255 294
e 256 380
e 261 463
e 262 443
e 264 286
e 265 362
e 267 443
e 269 347
e 270 446
e 272 424
e 274 474
e 274 400
e 276 443
e 277 286
e 278 286
e 279 354
e 279 365
e 279 391
e 280 286
e 281 286
e 282 309
e 282 349
e 283 406
e 284 433
e 286 329
e 286 302
e 286 433
e 286 309
e 286 451
e 286 374
e 286 401
e 286 394
e 286 468
e 286 291
e 286 307
e 286 480
e 286 306
e 286 414
e 286 340
e 286 478
e 294 430
e 294 438
e 297 347
e 299 344
e 299 477
e 303 349
e 304 425
e 304 395
e 305 463
e 305 360
e 305 347
e 306 352
e 307 347
e 308 309
e 308 322
e 309 330
e 309 320
e 311 442
e 311 353
e 311 418
e 311 430
e 311 319
e 312 335
e 316 347
e 317 404
e 318 445
e 319 323
e 319 466
e 321 347
e 321 476
e 325 330
e 329 463
e 330 469
e 330 470
e 330 380
e 330 397
e 330 334
e 330 459
e 333 341
e 335 443
e 335 347
e 336 352
e 337 354
e 344 381
e 344 455
e 344 430
e 345 478
e 347 372
e 347 398
e 347 348
e 347 470
e 347 437
e 347 462
e 347 440
e 347 432
e 347 399
e 347 419
e 347 453
e 347 394
e 347 413
e 347 386
e 349 454
e 349 350
e 351 371
e 355 443
e 356 473
e 356 384
e 359 382
e 359 391
e 361 397
e 363 391
e 363 383
e 367 436
e 368 410
e 368 477
e 370 443
e 373 477
e 375 445
e 376 433
e 383 403
e 384 410
e 384 443
e 390 445
e 392 397
e 396 446
e 398 449
e 401 443
e 404 405
e 406 439
e 409 441
e 410 431
e 411 431
e 416 445
e 420 433
e 421 443
e 428 442
e 433 443
e 435 476
e 436 439
e 443 482
e 443 462
e 443 479
e 443 475
e 446 462
e 448 450
e 452 476
l 325
t 177 425
